n=150;
k_min=3;
k_max=3;
M=[| 358, 477, 164
 | 361, 500, 138
 | 362, 482, 155
 | 369, 481, 149
 | 356, 479, 163
 | 345, 500, 154
 | 362, 481, 155
 | 360, 485, 153
 | 363, 500, 136
 | 364, 488, 146
 | 345, 500, 154
 | 360, 500, 139
 | 363, 491, 145
 | 360, 480, 159
 | 343, 467, 189
 | 342, 464, 192
 | 345, 479, 174
 | 359, 476, 164
 | 352, 478, 169
 | 354, 479, 166
 | 354, 500, 145
 | 357, 477, 164
 | 356, 465, 178
 | 365, 500, 134
 | 372, 479, 147
 | 369, 485, 145
 | 364, 486, 148
 | 357, 482, 160
 | 358, 477, 163
 | 368, 485, 145
 | 370, 484, 145
 | 358, 481, 160
 | 347, 473, 179
 | 342, 472, 184
 | 364, 488, 146
 | 358, 482, 159
 | 349, 481, 168
 | 364, 488, 146
 | 362, 491, 145
 | 361, 480, 158
 | 358, 477, 164
 | 375, 463, 161
 | 363, 481, 155
 | 364, 482, 152
 | 362, 475, 162
 | 365, 491, 143
 | 354, 479, 165
 | 365, 479, 154
 | 348, 493, 157
 | 361, 481, 157
 | 475, 169, 354
 | 465, 210, 324
 | 500, 134, 365
 | 452, 284, 262
 | 500, 172, 327
 | 500, 222, 277
 | 462, 201, 335
 | 500, 334, 165
 | 477, 189, 333
 | 455, 300, 243
 | 464, 324, 211
 | 473, 247, 279
 | 454, 272, 272
 | 486, 195, 317
 | 461, 312, 226
 | 462, 210, 327
 | 474, 237, 288
 | 500, 254, 245
 | 500, 193, 306
 | 468, 287, 243
 | 456, 212, 331
 | 460, 263, 275
 | 459, 186, 353
 | 473, 208, 318
 | 465, 227, 307
 | 471, 207, 321
 | 468, 168, 362
 | 471, 149, 379
 | 481, 215, 303
 | 500, 304, 195
 | 464, 298, 237
 | 470, 304, 225
 | 474, 277, 248
 | 455, 189, 354
 | 465, 250, 283
 | 459, 231, 309
 | 474, 176, 349
 | 476, 215, 308
 | 500, 257, 242
 | 459, 283, 256
 | 473, 252, 274
 | 500, 195, 304
 | 478, 267, 254
 | 488, 335, 176
 | 480, 257, 262
 | 487, 255, 257
 | 500, 245, 254
 | 468, 233, 297
 | 467, 362, 169
 | 487, 258, 254
 | 459, 140, 400
 | 477, 181, 341
 | 464, 75, 460
 | 467, 135, 396
 | 468, 115, 416
 | 425, 115, 458
 | 433, 277, 289
 | 432, 88, 479
 | 448, 118, 432
 | 452, 111, 435
 | 500, 130, 369
 | 500, 118, 381
 | 458, 118, 423
 | 500, 176, 323
 | 459, 191, 348
 | 468, 147, 383
 | 466, 129, 404
 | 405, 94, 500
 | 413, 142, 443
 | 456, 198, 344
 | 480, 92, 426
 | 472, 204, 322
 | 416, 126, 456
 | 463, 178, 358
 | 473, 109, 417
 | 446, 92, 461
 | 459, 192, 347
 | 457, 193, 348
 | 468, 126, 404
 | 430, 111, 457
 | 429, 70, 500
 | 406, 121, 471
 | 464, 131, 404
 | 459, 173, 366
 | 447, 170, 382
 | 431, 107, 460
 | 452, 157, 390
 | 461, 141, 397
 | 460, 202, 336
 | 455, 123, 420
 | 471, 115, 413
 | 457, 144, 397
 | 477, 181, 341
 | 500, 74, 425
 | 474, 116, 409
 | 464, 139, 396
 | 467, 168, 363
 | 479, 135, 384
 | 456, 166, 377
 | 452, 195, 352 |];
 P=[2, 2, 2, 2, 2, 2, 2, 2, 2, 2, 2, 2, 2, 2, 2, 2, 2, 2, 2, 2, 2, 2, 2, 2, 2, 2, 2, 2, 2, 2, 2, 2, 2, 2, 2, 2, 2, 2, 2, 2, 2, 2, 2, 2, 2, 2, 2, 2, 2, 2, 1, 1, 1, 1, 1, 1, 1, 1, 1, 1, 1, 1, 1, 1, 1, 1, 1, 1, 1, 1, 1, 1, 1, 1, 1, 1, 1, 1, 1, 1, 1, 1, 1, 1, 1, 1, 1, 1, 1, 1, 1, 1, 1, 1, 1, 1, 1, 1, 1, 1, 1, 1, 3, 1, 1, 3, 1, 3, 1, 3, 1, 1, 1, 1, 1, 1, 1, 3, 3, 1, 1, 1, 3, 1, 1, 3, 1, 1, 1, 3, 3, 3, 1, 1, 1, 3, 1, 1, 1, 1, 1, 1, 1, 1, 1, 1, 1, 1, 1, 1 ];